NAME : local_1
TYPE : ATSP
DIMENSION : 10
EDGE_WEIGHT_TYPE : EXPLICIT
EDGE_WEIGHT_FORMAT : FULL_MATRIX
EDGE_WEIGHT_SECTION
0 904 915 260 425 657 352 774 491 812 
0 0 289 688 720 919 738 930 744 620 
0 289 0 686 812 755 652 689 796 473 
0 713 686 0 483 766 284 779 570 872 
0 755 821 483 0 384 648 1519 124 556 
0 895 755 766 384 0 856 1279 261 361 
0 738 652 284 648 903 0 518 697 879 
0 930 689 779 1054 1007 518 0 1188 856 
0 765 788 570 124 261 724 1271 0 467 
0 620 473 924 556 361 882 833 467 0 
EOF